NAME : in_house_9_13
TYPE : TSP
DIMENSION : 9
EDGE_WEIGHT_TYPE : EXPLICIT
EDGE_WEIGHT_FORMAT : UPPER_ROW
COMMENT : INVERSION_SHIFT=9
EDGE_WEIGHT_SECTION
32
67
51
17
67
29
67
37
17
57
58
59
22
61
40
37
23
25
42
52
51
11
78
41
75
66
69
55
31
77
70
75
34
14
37
30
